!!! Generated by ASE !!!
&GLOBAL
   RUN_TYPE ENERGY_FORCE
   PROJECT LDA
&END GLOBAL
&FORCE_EVAL
   METHOD Quickstep
   &DFT
      CHARGE 0
      BASIS_SET_FILE_NAME GTH_BASIS_SETS
      POTENTIAL_FILE_NAME POTENTIAL
      &PRINT
         &DFT_CONTROL_PARAMETERS
         &END DFT_CONTROL_PARAMETERS
         &E_DENSITY_CUBE ON
            STRIDE 1
            &EACH
               MD 1
            &END EACH
         &END E_DENSITY_CUBE
         &V_HARTREE_CUBE ON
            STRIDE 1
            &EACH
               MD 1
            &END EACH
         &END V_HARTREE_CUBE
         &TOT_DENSITY_CUBE ON
            STRIDE 1
            &EACH
               MD 1
            &END EACH
         &END TOT_DENSITY_CUBE
         #&MOMENTS
         #   FILENAME moments-1.dat
         #   PERIODIC .F.
         #   REFERENCE COM
         #   MAX_MOMENT 2
         #&END MOMENTS
      &END PRINT
      &QS
         EPS_DEFAULT 1.0e-18
         EXTRAPOLATION ASPC     # Has to be ASPC="Always stable predictor corrector"
         EXTRAPOLATION_ORDER 2  # K=EXTRAPOLATION_ORDER+2 (cfr PRL)
         # K is the number of previous C used for the predictor
         MAP_CONSISTENT TRUE
         METHOD GPW
      &END QS
      &SCF
         EPS_SCF 1.0e-10
         MAX_SCF 20
         SCF_GUESS RESTART
         &OT
            PRECONDITIONER FULL_SINGLE_INVERSE
            MINIMIZER DIIS
         &END OT
         &OUTER_SCF
            EPS_SCF 1.0E-10
            MAX_SCF 10
         &END OUTER_SCF
         &PRINT
            &RESTART
               BACKUP_COPIES 3
               &EACH
                  QS_SCF 0
               &END EACH
            &END RESTART
            &RESTART_HISTORY
               BACKUP_COPIES 3
            &END RESTART_HISTORY
         &END PRINT
      &END SCF
      &MGRID
         CUTOFF [eV] 5.442277204873448682e+03
      &END MGRID
      &LS_SCF
         MAX_SCF 20
      &END LS_SCF
      &XC
         &XC_FUNCTIONAL
            &LIBXC
                FUNCTIONAL LDA_X LDA_C_PZ_MOD
            &END LIBXC
         &END XC_FUNCTIONAL
      &END XC
      &POISSON
         PERIODIC NONE
         PSOLVER  MULTIPOLE
      &END POISSON
   &END DFT
   &SUBSYS
      &COORD
        O  0.   0.     0
        H  0.  -0.757  0.587
        H  0.   0.757  0.587
      &END COORD
      &CELL
         PERIODIC NONE
         ABC 10 10 10
      &END CELL
      &TOPOLOGY
        &CENTER_COORDINATES
        &END CENTER_COORDINATES
      &END TOPOLOGY
      &KIND H
         BASIS_SET aug-TZV2P-GTH
         POTENTIAL GTH-PADE
      &END KIND
      &KIND C
         BASIS_SET aug-TZV2P-GTH
         POTENTIAL GTH-PADE
      &END KIND
      &KIND O
         BASIS_SET aug-TZV2P-GTH
         POTENTIAL GTH-PADE
      &END KIND
      &KIND N
         BASIS_SET aug-TZV2P-GTH
         POTENTIAL GTH-PADE
      &END KIND
   &END SUBSYS
&END FORCE_EVAL
